set VV := 0 1 2 3 4 5 6 7 ;
set VS := 0 1 2 3 4 5 6 7 8 9 10 11 12 13 14 15 16 17 18 19 20 ;
param cv := 
0 19
1 17
2 24
3 20
4 21
5 13
6 23
7 12
;
param cs := 
0 33
1 35
2 35
3 38
4 38
5 29
6 36
7 33
8 26
9 21
10 25
11 34
12 30
13 40
14 20
15 26
16 36
17 37
18 35
19 30
20 22
;
param bv:	 0 1 2 3 4 5 6 7 := 
		0 0 11 0 0 0 0 0 19 
		1 0 0 0 0 0 10 0 0 
		2 0 0 0 0 0 0 0 15 
		3 0 0 0 0 0 0 10 0 
		4 0 0 0 0 0 20 0 0 
		5 0 0 0 0 0 0 14 0 
		6 0 0 0 0 0 0 0 15 
		7 0 0 0 0 0 0 0 0 
;
param bs:	 0 1 2 3 4 5 6 7 8 9 10 11 12 13 14 15 16 17 18 19 20 := 
		0 0 0 0 0 0 0 0 0 0 0 0 0 28 0 29 21 0 0 0 0 0 
		1 0 0 0 0 0 0 0 26 39 0 0 0 0 0 40 0 0 0 0 22 0 
		2 0 0 0 0 0 0 0 0 0 0 0 29 0 0 0 0 0 0 0 0 0 
		3 0 0 0 0 0 0 0 37 0 0 0 0 0 0 0 0 0 26 28 0 0 
		4 0 0 0 0 0 0 0 0 0 0 0 0 0 0 0 25 0 0 0 0 0 
		5 0 0 0 0 0 0 0 36 0 0 0 0 0 0 27 0 0 0 0 0 0 
		6 0 0 0 0 0 0 0 0 0 0 0 0 0 0 0 0 0 0 31 0 0 
		7 0 26 0 37 0 36 0 0 0 0 30 0 0 0 0 0 0 0 0 0 0 
		8 0 39 0 0 0 0 0 0 0 30 0 20 37 0 0 0 0 0 0 0 34 
		9 0 0 0 0 0 0 0 0 30 0 0 0 0 25 24 0 0 0 0 0 0 
		10 0 0 0 0 0 0 0 30 0 0 0 0 0 0 0 0 21 0 0 0 0 
		11 0 0 29 0 0 0 0 0 20 0 0 0 0 0 0 0 0 0 0 0 25 
		12 28 0 0 0 0 0 0 0 37 0 0 0 0 0 0 0 0 0 0 0 0 
		13 0 0 0 0 0 0 0 0 0 25 0 0 0 0 0 0 0 0 0 0 0 
		14 29 40 0 0 0 27 0 0 0 24 0 0 0 0 0 0 0 0 0 0 0 
		15 21 0 0 0 25 0 0 0 0 0 0 0 0 0 0 0 0 0 0 0 0 
		16 0 0 0 0 0 0 0 0 0 0 21 0 0 0 0 0 0 0 0 0 36 
		17 0 0 0 26 0 0 0 0 0 0 0 0 0 0 0 0 0 0 39 0 0 
		18 0 0 0 28 0 0 31 0 0 0 0 0 0 0 0 0 0 39 0 0 38 
		19 0 22 0 0 0 0 0 0 0 0 0 0 0 0 0 0 0 0 0 0 20 
		20 0 0 0 0 0 0 0 0 34 0 0 25 0 0 0 0 36 0 38 20 0 
;
